32      4       
20      18      15      21      
0       0       0       0       0       1       2       
4       2       1       0       7       3       3       6       14      
2       2       5       0       0       3       4       9       18      
3       0       5       6       4       3       5       7       10      
10      9       0       0       0       2       8       21      
4       0       7       9       0       2       8       28      
9       9       9       2       2       3       11      12      25      
7       8       0       0       7       3       13      20      31      
4       4       0       0       0       1       29      
3       7       8       3       0       1       26      
6       5       0       5       4       1       29      
9       0       8       0       9       1       30      
10      10      2       5       0       1       17      
2       1       0       0       6       2       15      21      
6       0       0       0       6       1       16      
6       0       6       6       10      1       19      
6       0       0       5       0       1       27      
10      0       9       0       0       1       23      
2       0       10      9       0       2       22      24      
3       0       0       6       0       1       26      
3       8       0       6       0       1       26      
10      0       8       0       0       2       27      28      
10      0       0       0       5       2       25      28      
6       0       0       0       7       1       25      
4       8       0       0       4       1       31      
3       2       2       5       4       1       30      
4       3       0       0       4       1       29      
7       0       0       3       4       2       30      31      
8       3       0       0       0       1       32      
4       0       2       0       6       1       32      
1       0       7       9       6       1       32      
0       0       0       0       0       0       